786544955958624982508,3,1,2,07,15,1,2,06,9,1,2,06,9,1,2,08,12,1,2,02,13,1,2,014,8,1,2,05,1,1,2,010,15,1,2,010,3,1,2,06,5,1,2,011,7,1,2,06,14,1,2,04,15,1,2,011,10,1,2,07,14,1,2,010,3,1,2,06,10,1,2,01,3,1,2,08,2,1,2,012,15,1,2,06,15,1,2,014,9,1,2,08,1,1,2,01,7,1,2,015,2,1,2,02,12,1,2,010,15,1,2,09,10,1,2,011,13,1,2,02,10,1,2,011,6,1,2,07,11,1,2,010,8,1,2,013,7,1,2,011,2,1,2,014,6,1,2,03,9,1,2,06,10,1,2,07,15,1,2,013,12,1,2,06,4,1,2,010,8,1,2,011,2,1,2,07,4,1,2,06,11,1,2,03,14,1,2,09,13,1,2,010,8,1,2,02,5,1,2,0